(set-logic BV) (define-fun origCir ((n143 Bool) (n167 Bool) (n312 Bool) (n288 Bool) (n368 Bool) (n344 Bool)) Bool (and (xor (and (xor (xor n312 n288) (xor n167 n143)) (xor n368 n344)) (and (xor n312 n288) (xor n167 n143))) (and (xor (xor n312 n288) (xor n167 n143)) (xor n368 n344)))) (synth-fun skel ((n143 Bool) (n167 Bool) (n312 Bool) (n288 Bool) (n368 Bool) (n344 Bool)) Bool) (declare-var n143 Bool) (declare-var n167 Bool) (declare-var n312 Bool) (declare-var n288 Bool) (declare-var n368 Bool) (declare-var n344 Bool) (constraint (= (origCir n143 n167 n312 n288 n368 n344) (skel n143 n167 n312 n288 n368 n344))) (check-synth)
